Read MPS format model from file dat/rmp/4node_1024_24.mps
Reading time = 0.05 seconds
: 1084 rows, 5997 columns, 155005 nonzeros
Gurobi Optimizer version 9.0.0 build v9.0.0rc2 (linux64)
Optimize a model with 1084 rows, 5997 columns and 155005 nonzeros
Model fingerprint: 0x71a70848
Coefficient statistics:
  Matrix range     [6e-03, 3e+01]
  Objective range  [7e-02, 1e+04]
  Bounds range     [0e+00, 0e+00]
  RHS range        [1e+00, 8e+01]
Ordering time: 0.00s

Barrier statistics:
 AA' NZ     : 5.200e+04
 Factor NZ  : 6.387e+04 (roughly 3 MBytes of memory)
 Factor Ops : 4.027e+06 (less than 1 second per iteration)
 Threads    : 1

                  Objective                Residual
Iter       Primal          Dual         Primal    Dual     Compl     Time
   0   1.86148510e+07  0.00000000e+00  1.38e+04 4.80e+02  5.16e+04     0s
   1   2.83046158e+06 -9.33655796e+06  2.02e+03 3.83e+03  9.09e+03     0s
   2   5.75351497e+05 -6.21745111e+06  4.02e+02 1.74e+03  2.59e+03     0s
   3   2.23374199e+05 -5.67271996e+06  1.25e+02 1.54e+03  1.73e+03     0s
   4   7.41581694e+04 -1.59520590e+06  2.20e-10 3.59e+02  4.02e+02     0s
   5   5.62609649e+04 -9.18314441e+04  8.13e-10 2.16e+01  3.15e+01     0s
   6   1.64394332e+04 -2.16998655e+04  1.91e-10 4.37e+00  7.45e+00     0s
   7   8.25002033e+02 -4.84505298e+03  2.35e-11 3.11e-01  1.02e+00     0s
   8   1.78883887e+01 -2.63072648e+03  1.76e-11 9.18e-02  4.62e-01     0s
   9  -1.93308276e+02 -1.20756876e+03  3.51e-11 1.74e-02  1.73e-01     0s
  10  -3.46752575e+02 -5.06808329e+02  7.81e-11 1.44e-03  2.70e-02     0s
  11  -3.97123910e+02 -4.53192380e+02  6.59e-10 2.18e-04  9.41e-03     0s
  12  -4.23426479e+02 -4.38862177e+02  1.23e-09 2.97e-05  2.59e-03     0s
  13  -4.26709979e+02 -4.35607939e+02  2.07e-09 3.62e-06  1.49e-03     0s
  14  -4.31063589e+02 -4.34421355e+02  5.20e-09 1.19e-07  5.60e-04     0s
  15  -4.31819319e+02 -4.34426642e+02  2.70e-08 1.06e-07  4.35e-04     0s
  16  -4.33096573e+02 -4.34281079e+02  5.34e-08 1.27e-07  1.98e-04     0s
  17  -4.33147754e+02 -4.34232230e+02  5.59e-08 4.15e-08  1.81e-04     0s
  18  -4.33616560e+02 -4.34159344e+02  3.69e-07 4.90e-09  9.05e-05     0s
  19  -4.33616929e+02 -4.34140655e+02  6.66e-07 2.06e-09  8.73e-05     0s
  20  -4.33617089e+02 -4.34137483e+02  5.47e-07 1.00e-09  8.68e-05     0s
  21  -4.33618042e+02 -4.34124131e+02  6.01e-07 1.36e-09  8.44e-05     0s
  22  -4.33618250e+02 -4.34124953e+02  7.94e-07 1.82e-10  8.45e-05     0s
  23  -4.33618466e+02 -4.34124816e+02  1.07e-06 3.88e-10  8.44e-05     0s
  24  -4.33618511e+02 -4.34123129e+02  1.24e-06 1.21e-10  8.41e-05     0s
  25  -4.33618966e+02 -4.34123074e+02  1.24e-06 6.56e-10  8.41e-05     0s
  26  -4.33619107e+02 -4.34124868e+02  1.17e-06 4.90e-11  8.43e-05     0s
  27  -4.33619666e+02 -4.34116931e+02  2.26e-06 1.01e-10  8.29e-05     0s
  28  -4.33621276e+02 -4.34116447e+02  2.42e-06 2.91e-11  8.26e-05     0s
  29  -4.33624055e+02 -4.34135295e+02  1.75e-06 8.66e-11  8.53e-05     0s
  30  -4.33624350e+02 -4.34128849e+02  2.68e-06 5.71e-11  8.41e-05     0s
  31  -4.33624791e+02 -4.34127788e+02  2.85e-06 3.38e-11  8.39e-05     0s
  32  -4.33625465e+02 -4.34115359e+02  5.07e-06 5.06e-11  8.17e-05     0s
  33  -4.33629095e+02 -4.34114370e+02  6.48e-06 2.91e-11  8.09e-05     0s
  34  -4.33649548e+02 -4.34119544e+02  7.47e-06 1.46e-11  7.84e-05     0s
  35  -4.33650887e+02 -4.34113762e+02  8.41e-06 2.91e-11  7.73e-05     0s
  36  -4.33723457e+02 -4.34113897e+02  8.54e-06 2.91e-11  6.52e-05     0s
  37  -4.33756000e+02 -4.34113174e+02  1.46e-05 2.91e-11  5.97e-05     0s
  38  -4.34091784e+02 -4.34112604e+02  2.28e-06 2.91e-11  3.49e-06     0s
  39  -4.34096452e+02 -4.34112529e+02  3.55e-06 2.91e-11  2.61e-06     0s
  40  -4.34097813e+02 -4.34112516e+02  3.34e-06 2.91e-11  2.38e-06     0s
  41  -4.34109546e+02 -4.34112501e+02  8.13e-07 5.82e-11  4.64e-07     0s
  42  -4.34112478e+02 -4.34112500e+02  7.13e-09 2.91e-11  3.27e-09     0s
  43  -4.34112500e+02 -4.34112500e+02  2.81e-12 2.91e-11  4.25e-14     0s

Barrier solved model in 43 iterations and 0.41 seconds
Optimal objective -4.34112500e+02

Solve time: 0.412854629
Barrier iterations: 43
